p wcnf 148 296 297 
1 61 -127 0 
1 -12 48 0 
1 -111 -53 0 
1 5 139 0 
1 -56 -39 0 
1 -85 -116 0 
1 -53 95 0 
1 -29 -66 0 
1 -78 -75 0 
1 -115 -93 0 
1 -118 -131 0 
1 -122 -106 0 
1 -62 -81 0 
1 -98 -28 0 
1 14 -98 0 
1 -75 -13 0 
1 -69 29 0 
1 128 -94 0 
1 -92 122 0 
1 17 16 0 
1 34 -78 0 
1 -146 93 0 
1 148 91 0 
1 71 -56 0 
1 -86 147 0 
1 -42 7 0 
1 -23 1 0 
1 -105 22 0 
1 -110 96 0 
1 -23 -131 0 
1 91 -86 0 
1 -55 -23 0 
1 -119 -49 0 
1 51 92 0 
1 60 -38 0 
1 54 92 0 
1 -71 -64 0 
1 29 84 0 
1 -35 -14 0 
1 129 -79 0 
1 36 -25 0 
1 -4 -54 0 
1 -99 -60 0 
1 15 11 0 
1 -97 -102 0 
1 -133 -8 0 
1 -127 87 0 
1 -113 -140 0 
1 39 -118 0 
1 -59 -8 0 
1 -83 10 0 
1 17 -142 0 
1 41 -39 0 
1 -130 5 0 
1 -43 -91 0 
1 107 -70 0 
1 90 -8 0 
1 142 -3 0 
1 34 -69 0 
1 -144 22 0 
1 15 70 0 
1 23 20 0 
1 -68 9 0 
1 135 20 0 
1 -101 -136 0 
1 103 20 0 
1 97 -131 0 
1 7 123 0 
1 33 -47 0 
1 -104 80 0 
1 -58 95 0 
1 60 -77 0 
1 5 -101 0 
1 -20 47 0 
1 17 -75 0 
1 103 -81 0 
1 -2 -38 0 
1 16 45 0 
1 137 8 0 
1 -1 -29 0 
1 34 70 0 
1 60 -50 0 
1 -36 -25 0 
1 112 123 0 
1 125 -10 0 
1 -12 -101 0 
1 -56 -130 0 
1 69 98 0 
1 -2 133 0 
1 -133 -76 0 
1 20 60 0 
1 57 63 0 
1 37 -79 0 
1 102 148 0 
1 25 -19 0 
1 -69 -7 0 
1 94 104 0 
1 -97 -61 0 
1 -11 103 0 
1 -104 66 0 
1 -102 -58 0 
1 -21 -55 0 
1 -19 85 0 
1 -48 1 0 
1 5 109 0 
1 64 3 0 
1 83 79 0 
1 120 139 0 
1 24 -18 0 
1 -84 138 0 
1 21 115 0 
1 92 -127 0 
1 -39 90 0 
1 123 51 0 
1 -98 29 0 
1 110 -44 0 
1 56 -71 0 
1 132 -113 0 
1 -130 139 0 
1 -81 -34 0 
1 -148 95 0 
1 47 65 0 
1 28 147 0 
1 -95 -10 0 
1 51 76 0 
1 143 -72 0 
1 78 122 0 
1 -4 -38 0 
1 -75 -24 0 
1 112 -76 0 
1 -107 -41 0 
1 -81 143 0 
1 86 100 0 
1 -57 -87 0 
1 -42 -25 0 
1 147 23 0 
1 -9 4 0 
1 87 -51 0 
1 -86 -104 0 
1 83 -14 0 
1 32 19 0 
1 46 68 0 
1 -48 -90 0 
1 -69 27 0 
1 123 -80 0 
1 -24 137 0 
1 -24 -112 0 
1 56 -27 0 
1 3 136 0 
1 -90 83 0 
1 88 110 0 
1 -130 129 0 
1 9 -21 0 
1 -113 -76 0 
1 -121 -62 0 
1 4 -100 0 
1 5 15 0 
1 -3 56 0 
1 61 91 0 
1 -141 -79 0 
1 81 37 0 
1 58 -53 0 
1 -21 -116 0 
1 115 -105 0 
1 40 -5 0 
1 -100 72 0 
1 64 -142 0 
1 -40 -139 0 
1 79 -66 0 
1 -99 -84 0 
1 122 64 0 
1 -57 -130 0 
1 -36 91 0 
1 -5 101 0 
1 63 147 0 
1 -50 -19 0 
1 94 18 0 
1 28 141 0 
1 144 -147 0 
1 -43 12 0 
1 145 -94 0 
1 -122 71 0 
1 6 -65 0 
1 -98 -104 0 
1 -19 104 0 
1 68 -57 0 
1 105 47 0 
1 18 142 0 
1 -10 -59 0 
1 107 131 0 
1 -131 16 0 
1 -30 -56 0 
1 -148 -65 0 
1 75 37 0 
1 -61 80 0 
1 -50 135 0 
1 -41 35 0 
1 -73 33 0 
1 113 85 0 
1 -81 145 0 
1 -57 -61 0 
1 125 127 0 
1 -104 -99 0 
1 61 106 0 
1 -134 -42 0 
1 97 63 0 
1 98 113 0 
1 -136 -86 0 
1 2 62 0 
1 95 103 0 
1 36 -47 0 
1 5 1 0 
1 -141 -26 0 
1 8 125 0 
1 112 60 0 
1 -111 124 0 
1 93 -23 0 
1 56 -92 0 
1 21 6 0 
1 -47 -117 0 
1 14 -127 0 
1 79 -126 0 
1 -62 -55 0 
1 122 -70 0 
1 -46 -48 0 
1 -140 -56 0 
1 54 142 0 
1 -24 -88 0 
1 85 -99 0 
1 63 -34 0 
1 42 -126 0 
1 52 5 0 
1 31 35 0 
1 50 -65 0 
1 -94 -78 0 
1 -49 -94 0 
1 -97 42 0 
1 133 -125 0 
1 -134 -78 0 
1 -145 -45 0 
1 -68 -95 0 
1 -143 -140 0 
1 -76 -26 0 
1 -115 33 0 
1 -100 -122 0 
1 -76 59 0 
1 -127 61 0 
1 72 -25 0 
1 83 62 0 
1 -15 -148 0 
1 -139 -124 0 
1 -127 -51 0 
1 13 80 0 
1 -107 10 0 
1 117 -109 0 
1 100 75 0 
1 -28 -120 0 
1 77 -26 0 
1 30 -101 0 
1 -70 5 0 
1 127 -32 0 
1 -144 -75 0 
1 -104 2 0 
1 -46 63 0 
1 81 -36 0 
1 -135 23 0 
1 139 -146 0 
1 66 -83 0 
1 40 144 0 
1 138 -55 0 
1 4 15 0 
1 47 -27 0 
1 -50 117 0 
1 86 -66 0 
1 94 90 0 
1 60 -28 0 
1 -105 -28 0 
1 138 24 0 
1 -15 38 0 
1 11 138 0 
1 -29 -23 0 
1 144 -105 0 
1 89 -42 0 
1 35 -68 0 
1 -31 -61 0 
1 94 38 0 
1 116 48 0 
1 -133 114 0 
1 79 -89 0 
1 -113 24 0 
1 -24 99 0 
1 138 -5 0 
1 136 -133 0 
1 -134 105 0 
1 11 144 0 
1 -96 -56 0 
